g3 0 1 0	# problem vanderm4
 9 17 1 0 9	# vars, constraints, objectives, ranges, eqns
 9 0	# nonlinear constraints, objectives
 0 0	# network constraints: nonlinear, linear
 9 0 0	# nonlinear vars in constraints, objectives, both
 0 0 0 1	# linear network variables; functions; arith, flags
 0 0 0 0 0	# discrete variables: binary, integer, nonlinear (b,c,o)
 97 0	# nonzeros in Jacobian, gradients
 0 0	# max name lengths: constraints, variables
 0 0 0 0 0	# common exprs: b,c,o,c1,o1
b
3
3
3
3
3
3
3
3
3
x9
0 0
1 0.1111111111111111
2 0.2222222222222222
3 0.3333333333333333
4 0.4444444444444444
5 0.5555555555555556
6 0.6666666666666666
7 0.7777777777777778
8 0.8888888888888888
r
4 0
4 0
4 0
4 0
4 0
4 0
4 0
4 0
4 0
2 0
2 0
2 0
2 0
2 0
2 0
2 0
2 0
C0
o5
o0
n-1.99609375
o54
9
v0
v1
v2
v3
v4
v5
v6
v7
v8
n2
C1
o5
o0
n-1.3333282470703125
o54
9
o5
v0
n2
o5
v1
n2
o5
v2
n2
o5
v3
n2
o5
v4
n2
o5
v5
n2
o5
v6
n2
o5
v7
n2
o5
v8
n2
n2
C2
o5
o0
n-1.1428571343421936
o54
9
o5
v0
n3
o5
v1
n3
o5
v2
n3
o5
v3
n3
o5
v4
n3
o5
v5
n3
o5
v6
n3
o5
v7
n3
o5
v8
n3
n2
C3
o5
o0
n-1.0666666666511446
o54
9
o5
v0
n4
o5
v1
n4
o5
v2
n4
o5
v3
n4
o5
v4
n4
o5
v5
n4
o5
v6
n4
o5
v7
n4
o5
v8
n4
n2
C4
o5
o0
n-1.0322580645160997
o54
9
o5
v0
n5
o5
v1
n5
o5
v2
n5
o5
v3
n5
o5
v4
n5
o5
v5
n5
o5
v6
n5
o5
v7
n5
o5
v8
n5
n2
C5
o5
o0
n-1.0158730158730158
o54
9
o5
v0
n6
o5
v1
n6
o5
v2
n6
o5
v3
n6
o5
v4
n6
o5
v5
n6
o5
v6
n6
o5
v7
n6
o5
v8
n6
n2
C6
o5
o0
n-1.0078740157480315
o54
9
o5
v0
n7
o5
v1
n7
o5
v2
n7
o5
v3
n7
o5
v4
n7
o5
v5
n7
o5
v6
n7
o5
v7
n7
o5
v8
n7
n2
C7
o5
o0
n-1.003921568627451
o54
9
o5
v0
n8
o5
v1
n8
o5
v2
n8
o5
v3
n8
o5
v4
n8
o5
v5
n8
o5
v6
n8
o5
v7
n8
o5
v8
n8
n2
C8
o5
o0
n-1.0019569471624266
o54
9
o5
v0
n9
o5
v1
n9
o5
v2
n9
o5
v3
n9
o5
v4
n9
o5
v5
n9
o5
v6
n9
o5
v7
n9
o5
v8
n9
n2
C9
n0
C10
n0
C11
n0
C12
n0
C13
n0
C14
n0
C15
n0
C16
n0
O0 0
n0
k8
10
21
32
43
54
65
76
87
J0 9
0 0
1 0
2 0
3 0
4 0
5 0
6 0
7 0
8 0
J1 9
0 0
1 0
2 0
3 0
4 0
5 0
6 0
7 0
8 0
J2 9
0 0
1 0
2 0
3 0
4 0
5 0
6 0
7 0
8 0
J3 9
0 0
1 0
2 0
3 0
4 0
5 0
6 0
7 0
8 0
J4 9
0 0
1 0
2 0
3 0
4 0
5 0
6 0
7 0
8 0
J5 9
0 0
1 0
2 0
3 0
4 0
5 0
6 0
7 0
8 0
J6 9
0 0
1 0
2 0
3 0
4 0
5 0
6 0
7 0
8 0
J7 9
0 0
1 0
2 0
3 0
4 0
5 0
6 0
7 0
8 0
J8 9
0 0
1 0
2 0
3 0
4 0
5 0
6 0
7 0
8 0
J9 2
0 -1
1 1
J10 2
1 -1
2 1
J11 2
2 -1
3 1
J12 2
3 -1
4 1
J13 2
4 -1
5 1
J14 2
5 -1
6 1
J15 2
6 -1
7 1
J16 2
7 -1
8 1
